9 
9 
10 
8 
9 
9 
7 
9 
9 
8 
6 
9 
9 
10 
8 
10 
8 
7 
7 
11 
9 
10 
8 
9 
9 
9 
10 
11 
8 
8 
8 
7 
7 
5 
9 
9 
9 
6 
9 
9 
9 
11 
9 
9 
9 
8 
10 
8 
7 
9 
9 
9 
9 
9 
9 
7 
9 
7 
8 
9 
7 
6 
10 
8 
9 
8 
9 
8 
8 
9 
8 
8 
9 
10 
8 
7 
9 
10 
9 
9 
9 
9 
9 
7 
10 
9 
7 
8 
8 
11 
9 
9 
8 
7 
7 
9 
8 
10 
8 
9 
